NAME:  test1
TYPE: AGTSP
COMMENT: gtsp tours
DIMENSION:  41
GTSP_SETS: 11
EDGE_WEIGHT_TYPE: EXPLICIT
EDGE_WEIGHT_FORMAT: FULL_MATRIX 
EDGE_WEIGHT_SECTION
999999	0	999999	999999	14121	14121	999999	999999	14102	14102	999999	999999	14075	14075	14067	999999	14117	14117	999999	999999	14073	14073	14065	999999	14092	14092	14092	14084	14083	14083	14083	14075	14103	14103	999999	999999	14076	14076	14068	999999	0
999999	999999	0	999999	14121	14121	14121	999999	14102	14102	14102	999999	14075	14075	14075	14067	14117	14117	14117	999999	14073	14073	14073	14065	14092	14092	14092	999999	14083	14083	14083	999999	14103	14103	14103	999999	14076	14076	14076	14068	0
999999	999999	999999	0	14121	14121	14121	14121	14102	14102	14102	14102	14075	14075	14075	14075	14117	14117	14117	14117	14073	14073	14073	14073	14092	14092	14092	14092	14083	14083	14083	14083	14103	14103	14103	14103	14076	14076	14076	14076	0
0	999999	999999	999999	14121	999999	999999	999999	14102	14102	14102	14094	14075	14067	999999	999999	14117	14117	14117	14109	14073	14065	999999	999999	14092	14092	14084	999999	14083	14083	14075	999999	14103	14103	14103	14095	14076	14068	999999	999999	0
14121	14121	999999	999999	999999	0	999999	999999	14075	14075	14067	999999	14103	14103	999999	999999	14077	14077	14069	999999	14108	14108	999999	999999	14091	14091	14091	14083	14101	14101	999999	999999	14112	14112	999999	999999	14111	14111	999999	999999	0
14121	14121	14121	999999	999999	999999	0	999999	14075	14075	14075	14067	14103	14103	14103	999999	14077	14077	14077	14069	14108	14108	14108	999999	14091	14091	14091	999999	14101	14101	14101	999999	14112	14112	14112	999999	14111	14111	14111	999999	0
14121	14121	14121	14121	999999	999999	999999	0	14075	14075	14075	14075	14103	14103	14103	14103	14077	14077	14077	14077	14108	14108	14108	14108	14091	14091	14091	14091	14101	14101	14101	14101	14112	14112	14112	14112	14111	14111	14111	14111	0
14121	999999	999999	999999	0	999999	999999	999999	14075	14067	999999	999999	14103	14103	14103	14095	14077	14069	999999	999999	14108	14108	14108	14100	14091	14091	14083	999999	14101	14101	14101	14093	14112	14112	14112	14104	14111	14111	14111	14103	0
14102	14102	999999	999999	14075	14075	14067	999999	999999	0	999999	999999	14085	14085	14085	14077	14081	14081	14081	14073	14090	14090	14090	14082	14073	14073	14065	999999	14085	14085	14085	14077	14103	14103	999999	999999	14093	14093	14093	14085	0
14102	14102	14102	999999	14075	14075	14075	14067	999999	999999	0	999999	14085	14085	14085	999999	14081	14081	14081	999999	14090	14090	14090	999999	14073	14073	14073	14065	14085	14085	14085	999999	14103	14103	14103	999999	14093	14093	14093	999999	0
14102	14102	14102	14102	14075	14075	14075	14075	999999	999999	999999	0	14085	14085	14085	14085	14081	14081	14081	14081	14090	14090	14090	14090	14073	14073	14073	14073	14085	14085	14085	14085	14103	14103	14103	14103	14093	14093	14093	14093	0
14102	14102	14102	14094	14075	14067	999999	999999	0	999999	999999	999999	14085	14085	14077	999999	14081	14081	14073	999999	14090	14090	14082	999999	14073	14065	999999	999999	14085	14085	14077	999999	14103	14103	14103	14095	14093	14093	14085	999999	0
14075	14075	14067	999999	14103	14103	999999	999999	14085	14085	14085	14077	999999	0	999999	999999	14100	14100	999999	999999	14067	14067	14059	999999	14076	14076	14068	999999	14071	14071	14063	999999	14096	14096	14096	14088	14073	14073	14065	999999	0
14075	14075	14075	14067	14103	14103	14103	999999	14085	14085	14085	999999	999999	999999	0	999999	14100	14100	14100	999999	14067	14067	14067	14059	14076	14076	14076	14068	14071	14071	14071	14063	14096	14096	14096	999999	14073	14073	14073	14065	0
14075	14075	14075	14075	14103	14103	14103	14103	14085	14085	14085	14085	999999	999999	999999	0	14100	14100	14100	14100	14067	14067	14067	14067	14076	14076	14076	14076	14071	14071	14071	14071	14096	14096	14096	14096	14073	14073	14073	14073	0
14075	14067	999999	999999	14103	14103	14103	14095	14085	14085	14077	999999	0	999999	999999	999999	14100	14100	14100	14092	14067	14059	999999	999999	14076	14068	999999	999999	14071	14063	999999	999999	14096	14096	14088	999999	14073	14065	999999	999999	0
14117	14117	999999	999999	14077	14077	14069	999999	14081	14081	14081	14073	14100	14100	999999	999999	999999	0	999999	999999	14109	14109	999999	999999	14096	14096	14096	14088	14092	14092	14092	14084	14095	14095	14095	14087	14113	14113	999999	999999	0
14117	14117	14117	999999	14077	14077	14077	14069	14081	14081	14081	999999	14100	14100	14100	999999	999999	999999	0	999999	14109	14109	14109	999999	14096	14096	14096	999999	14092	14092	14092	999999	14095	14095	14095	999999	14113	14113	14113	999999	0
14117	14117	14117	14117	14077	14077	14077	14077	14081	14081	14081	14081	14100	14100	14100	14100	999999	999999	999999	0	14109	14109	14109	14109	14096	14096	14096	14096	14092	14092	14092	14092	14095	14095	14095	14095	14113	14113	14113	14113	0
14117	14117	14117	14109	14077	14069	999999	999999	14081	14081	14073	999999	14100	14100	14100	14092	0	999999	999999	999999	14109	14109	14109	14101	14096	14096	14088	999999	14092	14092	14084	999999	14095	14095	14087	999999	14113	14113	14113	14105	0
14073	14073	14065	999999	14108	14108	999999	999999	14090	14090	14090	14082	14067	14067	14059	999999	14109	14109	999999	999999	999999	0	999999	999999	14076	14076	14068	999999	14082	14082	14082	14074	14106	14106	999999	999999	14063	14063	14055	999999	0
14073	14073	14073	14065	14108	14108	14108	999999	14090	14090	14090	999999	14067	14067	14067	14059	14109	14109	14109	999999	999999	999999	0	999999	14076	14076	14076	14068	14082	14082	14082	999999	14106	14106	14106	999999	14063	14063	14063	14055	0
14073	14073	14073	14073	14108	14108	14108	14108	14090	14090	14090	14090	14067	14067	14067	14067	14109	14109	14109	14109	999999	999999	999999	0	14076	14076	14076	14076	14082	14082	14082	14082	14106	14106	14106	14106	14063	14063	14063	14063	0
14073	14065	999999	999999	14108	14108	14108	14100	14090	14090	14082	999999	14067	14059	999999	999999	14109	14109	14109	14101	0	999999	999999	999999	14076	14068	999999	999999	14082	14082	14074	999999	14106	14106	14106	14098	14063	14055	999999	999999	0
14092	14092	14092	14084	14091	14091	14091	14083	14073	14073	14065	999999	14076	14076	14068	999999	14096	14096	14096	14088	14076	14076	14068	999999	999999	0	999999	999999	14085	14085	14085	14077	14108	14108	999999	999999	14078	14078	14070	999999	0
14092	14092	14092	999999	14091	14091	14091	999999	14073	14073	14073	14065	14076	14076	14076	14068	14096	14096	14096	999999	14076	14076	14076	14068	999999	999999	0	999999	14085	14085	14085	999999	14108	14108	14108	999999	14078	14078	14078	14070	0
14092	14092	14092	14092	14091	14091	14091	14091	14073	14073	14073	14073	14076	14076	14076	14076	14096	14096	14096	14096	14076	14076	14076	14076	999999	999999	999999	0	14085	14085	14085	14085	14108	14108	14108	14108	14078	14078	14078	14078	0
14092	14092	14084	999999	14091	14091	14083	999999	14073	14065	999999	999999	14076	14068	999999	999999	14096	14096	14088	999999	14076	14068	999999	999999	0	999999	999999	999999	14085	14085	14077	999999	14108	14108	14108	14100	14078	14070	999999	999999	0
14083	14083	14083	14075	14101	14101	999999	999999	14085	14085	14085	14077	14071	14071	14063	999999	14092	14092	14092	14084	14082	14082	14082	14074	14085	14085	14085	14077	999999	0	999999	999999	14082	14082	14082	14074	14087	14087	14087	14079	0
14083	14083	14083	999999	14101	14101	14101	999999	14085	14085	14085	999999	14071	14071	14071	14063	14092	14092	14092	999999	14082	14082	14082	999999	14085	14085	14085	999999	999999	999999	0	999999	14082	14082	14082	999999	14087	14087	14087	999999	0
14083	14083	14083	14083	14101	14101	14101	14101	14085	14085	14085	14085	14071	14071	14071	14071	14092	14092	14092	14092	14082	14082	14082	14082	14085	14085	14085	14085	999999	999999	999999	0	14082	14082	14082	14082	14087	14087	14087	14087	0
14083	14083	14075	999999	14101	14101	14101	14093	14085	14085	14077	999999	14071	14063	999999	999999	14092	14092	14084	999999	14082	14082	14074	999999	14085	14085	14077	999999	0	999999	999999	999999	14082	14082	14074	999999	14087	14087	14079	999999	0
14103	14103	999999	999999	14112	14112	999999	999999	14103	14103	999999	999999	14096	14096	14096	14088	14095	14095	14095	14087	14106	14106	999999	999999	14108	14108	999999	999999	14082	14082	14082	14074	999999	0	999999	999999	14112	14112	999999	999999	0
14103	14103	14103	999999	14112	14112	14112	999999	14103	14103	14103	999999	14096	14096	14096	999999	14095	14095	14095	999999	14106	14106	14106	999999	14108	14108	14108	999999	14082	14082	14082	999999	999999	999999	0	999999	14112	14112	14112	999999	0
14103	14103	14103	14103	14112	14112	14112	14112	14103	14103	14103	14103	14096	14096	14096	14096	14095	14095	14095	14095	14106	14106	14106	14106	14108	14108	14108	14108	14082	14082	14082	14082	999999	999999	999999	0	14112	14112	14112	14112	0
14103	14103	14103	14095	14112	14112	14112	14104	14103	14103	14103	14095	14096	14096	14088	999999	14095	14095	14087	999999	14106	14106	14106	14098	14108	14108	14108	14100	14082	14082	14074	999999	0	999999	999999	999999	14112	14112	14112	14104	0
14076	14076	14068	999999	14111	14111	999999	999999	14093	14093	14093	14085	14073	14073	14065	999999	14113	14113	999999	999999	14063	14063	14055	999999	14078	14078	14070	999999	14087	14087	14087	14079	14112	14112	999999	999999	999999	0	999999	999999	0
14076	14076	14076	14068	14111	14111	14111	999999	14093	14093	14093	999999	14073	14073	14073	14065	14113	14113	14113	999999	14063	14063	14063	14055	14078	14078	14078	14070	14087	14087	14087	999999	14112	14112	14112	999999	999999	999999	0	999999	0
14076	14076	14076	14076	14111	14111	14111	14111	14093	14093	14093	14093	14073	14073	14073	14073	14113	14113	14113	14113	14063	14063	14063	14063	14078	14078	14078	14078	14087	14087	14087	14087	14112	14112	14112	14112	999999	999999	999999	0	0
14076	14068	999999	999999	14111	14111	14111	14103	14093	14093	14085	999999	14073	14065	999999	999999	14113	14113	14113	14105	14063	14055	999999	999999	14078	14070	999999	999999	14087	14087	14079	999999	14112	14112	14112	14104	0	999999	999999	999999	0
14049	999999	999999	999999	14049	999999	999999	999999	14049	999999	999999	999999	14049	999999	999999	999999	14049	999999	999999	999999	14049	999999	999999	999999	14049	999999	999999	999999	14049	999999	999999	999999	14049	999999	999999	999999	14049	999999	999999	999999	999999
GTSP_SET_SECTION:
1 1 2 3 4 -1
2 5 6 7 8 -1
3 9 10 11 12 -1
4 13 14 15 16 -1
5 17 18 19 20 -1
6 21 22 23 24 -1
7 25 26 27 28 -1
8 29 30 31 32 -1
9 33 34 35 36 -1
10 37 38 39 40 -1
11 41
EOF